
Gurobi 7.5.2 (linux64) logging started Sat Jun 23 16:59:36 2018

Changed value of parameter LogFile to result/ilp/simNo_2-n_100-m_40-s_4-minVAF_0.05-cov_2000-k_1-fn_0.05-fp_0.0001-na_0.15.ILP.gurobiSolverLog
   Prev: gurobi.log  Default: 
Changed value of parameter TimeLimit to 86400.0
   Prev: 1e+100  Min: 0.0  Max: 1e+100  Default: 1e+100
Optimize a model with 1265601 rows, 330440 columns and 3489120 nonzeros
Variable types: 0 continuous, 330440 integer (330440 binary)
Coefficient statistics:
  Matrix range     [2e-03, 3e+00]
  Objective range  [5e-02, 9e+00]
  Bounds range     [1e+00, 1e+00]
  RHS range        [2e-01, 2e+00]
Found heuristic solution: objective -20405.98810
Presolve removed 300571 rows and 207691 columns (presolve time = 6s) ...
Presolve removed 301232 rows and 207691 columns (presolve time = 10s) ...
Presolve removed 301929 rows and 207691 columns (presolve time = 15s) ...
Presolve removed 302278 rows and 207691 columns (presolve time = 20s) ...
Presolve removed 302278 rows and 207691 columns (presolve time = 27s) ...
Presolve removed 302278 rows and 207691 columns (presolve time = 31s) ...
Presolve removed 302278 rows and 207691 columns (presolve time = 35s) ...
Presolve removed 302278 rows and 207691 columns (presolve time = 40s) ...
Presolve removed 302278 rows and 207691 columns (presolve time = 48s) ...
Presolve removed 302278 rows and 207691 columns (presolve time = 50s) ...
Presolve removed 302278 rows and 207691 columns
Presolve time: 50.30s
Presolved: 963323 rows, 122749 columns, 2669389 nonzeros
Variable types: 0 continuous, 122749 integer (122749 binary)
Presolve removed 0 rows and 0 columns (presolve time = 5s) ...
Presolved: 122749 rows, 1086072 columns, 2792138 nonzeros

Presolve removed 122749 rows and 1086072 columns

Root simplex log...

Iteration    Objective       Primal Inf.    Dual Inf.      Time
       0    3.5926043e+00   0.000000e+00   1.278360e+05     64s
    8267   -1.3463108e+02   0.000000e+00   9.749400e+04     65s
   21270   -2.2808429e+02   0.000000e+00   1.757100e+05     70s
   31854   -2.5707630e+02   0.000000e+00   4.998883e+04     76s
   35376   -2.6531915e+02   0.000000e+00   0.000000e+00     78s
   35376   -2.6531915e+02   0.000000e+00   0.000000e+00     80s

Root relaxation: objective -2.653192e+02, 35376 iterations, 25.27 seconds
Total elapsed time = 115.52s
Total elapsed time = 131.02s

    Nodes    |    Current Node    |     Objective Bounds      |     Work
 Expl Unexpl |  Obj  Depth IntInf | Incumbent    BestBd   Gap | It/Node Time

     0     0 -265.31915    0 1506 -20405.988 -265.31915  98.7%     -  144s
H    0     0                    -300.2352329 -265.31915  11.6%     -  172s
     0     0 -268.53786    0 1517 -300.23523 -268.53786  10.6%     -  207s
     0     0 -268.69102    0 1519 -300.23523 -268.69102  10.5%     -  240s
     0     0 -270.66549    0 1505 -300.23523 -270.66549  9.85%     -  276s
     0     0 -271.47106    0 1496 -300.23523 -271.47106  9.58%     -  310s
     0     0 -271.49218    0 1497 -300.23523 -271.49218  9.57%     -  321s
     0     0 -274.83890    0 1436 -300.23523 -274.83890  8.46%     -  355s
     0     0 -274.83890    0 1440 -300.23523 -274.83890  8.46%     -  377s
     0     0 -276.01182    0 1441 -300.23523 -276.01182  8.07%     -  402s
     0     0 -276.01182    0 1439 -300.23523 -276.01182  8.07%     -  422s
     0     0 -277.53935    0 1370 -300.23523 -277.53935  7.56%     -  442s
     0     0 -277.53935    0 1360 -300.23523 -277.53935  7.56%     -  462s
     0     0 -279.06687    0 1362 -300.23523 -279.06687  7.05%     -  485s
     0     0 -279.06687    0 1362 -300.23523 -279.06687  7.05%     -  503s
     0     0 -280.28889    0 1476 -300.23523 -280.28889  6.64%     -  531s
     0     0 -280.97628    0 1458 -300.23523 -280.97628  6.41%     -  560s
     0     0 -283.26756    0 1385 -300.23523 -283.26756  5.65%     -  586s
     0     0 -283.26756    0 1385 -300.23523 -283.26756  5.65%     -  604s
     0     0 -285.55885    0 1282 -300.23523 -285.55885  4.89%     -  632s
     0     0 -286.37758    0 1462 -300.23523 -286.37758  4.62%     -  656s
     0     0 -286.37758    0 1461 -300.23523 -286.37758  4.62%     -  666s
     0     0 -287.39593    0 1469 -300.23523 -287.39593  4.28%     -  687s
     0     0 -287.39593    0 1468 -300.23523 -287.39593  4.28%     -  707s
     0     0 -287.55071    0 1384 -300.23523 -287.55071  4.22%     -  733s
     0     0 -287.88312    0 1466 -300.23523 -287.88312  4.11%     -  754s
     0     0 -287.88312    0 1467 -300.23523 -287.88312  4.11%     -  766s
     0     0 -287.92081    0 1468 -300.23523 -287.92081  4.10%     -  791s
     0     0 -288.14362    0 1474 -300.23523 -288.14362  4.03%     -  811s
     0     0 -288.14362    0 1476 -300.23523 -288.14362  4.03%     -  822s
     0     0 -288.31013    0 1478 -300.23523 -288.31013  3.97%     -  853s
     0     0 -288.41428    0 1455 -300.23523 -288.41428  3.94%     -  871s
     0     0 -288.41428    0 1451 -300.23523 -288.41428  3.94%     -  881s
     0     0 -288.41428    0 1459 -300.23523 -288.41428  3.94%     -  905s
     0     0 -288.41428    0 1466 -300.23523 -288.41428  3.94%     -  919s
     0     0 -288.41428    0 1464 -300.23523 -288.41428  3.94%     -  940s
     0     0 -288.41428    0 1464 -300.23523 -288.41428  3.94%     -  954s
     0     0 -288.41428    0 1418 -300.23523 -288.41428  3.94%     - 1062s
     0     0 -288.41428    0 1432 -300.23523 -288.41428  3.94%     - 1081s
     0     0 -288.41428    0 1410 -300.23523 -288.41428  3.94%     - 1142s
     0     0 -288.41428    0 1410 -300.23523 -288.41428  3.94%     - 1170s
     0     2 -288.42404    0 1410 -300.23523 -288.42404  3.93%     - 1266s
     1     3 -292.59761    1  264 -300.23523 -288.43882  3.93%  2404 1284s
     2     4 -293.93419    2  498 -300.23523 -288.43882  3.93%  1374 1288s
     3     3     cutoff    2      -300.23523 -288.43882  3.93%  1017 1291s
     5     3     cutoff    3      -300.23523 -288.43882  3.93%   651 1296s
     7     3     cutoff    4      -300.23523 -288.43882  3.93%   502 1300s
     9     5 -297.18018    6  272 -300.23523 -288.43882  3.93%   406 1305s
    15     3     cutoff    9      -300.23523 -288.43882  3.93%   264 1310s
    17     3 -295.31798    1 1282 -300.23523 -295.31798  1.64%   405 1327s
    18     4 -295.90560    2   68 -300.23523 -295.31798  1.64%   390 1330s
*   19     3               3    -298.9493666 -295.31798  1.21%   381 1334s
    20     4 -295.91689    3   33 -298.94937 -295.31798  1.21%   363 1339s
*   21     2               4    -295.9168896 -295.31798  0.20%   345 1339s
    23     0     cutoff    2      -295.91689 -295.91689  0.00%   317 1343s

Cutting planes:
  Zero half: 98

Explored 24 nodes (73556 simplex iterations) in 1343.99 seconds
Thread count was 1 (of 80 available processors)

Solution count 4: -295.917 -298.949 -300.235 -20406 

Optimal solution found (tolerance 1.00e-04)
Best objective -2.959168896201e+02, best bound -2.959168896201e+02, gap 0.0000%
